12 24 9 10
14 5 11 9 7 1 11 19 16 10 20 9 6 7 15 19 11 20 16 4 1 5 6 16 
0.17 2.3 12.81 8.88 4.91 14.4 5.27 1.76 11.7 14.15 3.87 13.16 11.92 15.64 1.68 12.67 11.96 14.17 13.55 12.12 15.89 6.18 4.79 9.2 
5.65 3.65 14.79 7.17 8.83 1.37 14.37 13.61 5.04 11.53 4.83 0.36 10.99 1.68 15.43 6.77 9.27 5.21 4.31 3.23 5.09 8.21 11.73 11.9 
8.46 1.04 15.59 9.51 2.73 1.44 6.26 11.67 11.78 8.11 3.89 14.78 6.85 10.69 2.83 5.99 6.82 14.14 7.43 15.52 2.98 15.59 5.35 13.6 
12.02 8.71 6.64 4.8 3.45 9.91 5.32 11.32 2.39 7.57 4.96 9.95 4.78 8.38 5.79 9.47 6.2 2.7 7.97 15.73 14.28 2.42 15.58 0.82 
11.21 8.86 4.33 12.83 6.68 2.59 5.81 8.44 1.23 1.34 10.89 7.48 7.95 9.47 0.79 2.12 5.4 10.88 1.16 15.7 4.78 14.32 12.7 2.27 
8.05 11.12 14.5 15.85 4.89 3.01 12.6 14.31 13.65 1.34 0.82 6.45 1.94 15.69 1.16 9.46 1.33 6.32 0.27 12.7 12.86 7.4 10.02 10.43 
13.28 1.09 3.3 9.08 7.74 0.51 14.56 13.44 7.15 10.58 3.52 2.21 5.02 11.89 5.25 3.02 12.92 1.05 11.97 15.33 6.52 8.82 3.28 1.59 
11.82 11.19 13.62 7.24 0.47 1.73 14 10.6 12.35 13.61 0.16 5.74 6.49 5.46 4.88 12.9 14.32 6.09 0.05 6 14.61 10.94 14.98 2.41 
7.13 13.55 13.16 0.94 5.56 11.97 9.34 6.28 8.93 1.03 2.96 0.04 8.72 14.8 4.91 9.17 1.14 9.91 2.88 7.67 1.49 15.7 7.01 3.97 
8 8 8 8 8 8 8 8 8 8 8 8 8 8 8 8 8 8 8 8 8 8 8 8 
15.75 6.7 2.25 12.72 12.07 8.15 2.38 13.86 1.31 12.22 9.56 11.02 14.76 14.4 8.92 2.04 5.24 7.25 7.22 13.67 1.67 12.11 2.54 12.63 
1.26 3.51 14.61 13.85 4.94 0.93 3.15 13.61 13.07 1.94 14.41 1.7 13.52 6.69 3.12 14.34 9.69 11.59 0.07 10.07 3.64 6.44 3.49 6.8 
1 1 1 1 1 1 1 1 1 1 1 1 1 1 1 1 1 1 1 1 1 1 1 1 
1 1 1 1 1 1 1 1 1 1 1 1 1 1 1 1 1 1 1 1 1 1 1 1 
1 1 1 1 1 1 1 1 1 1 1 1 1 1 1 1 1 1 1 1 1 1 1 1 
1 1 1 1 1 1 1 1 1 1 1 1 1 1 1 1 1 1 1 1 1 1 1 1 
1 1 1 1 1 1 1 1 1 1 1 1 1 1 1 1 1 1 1 1 1 1 1 1 
1 1 1 1 1 1 1 1 1 1 1 1 1 1 1 1 1 1 1 1 1 1 1 1 
1 1 1 1 1 1 1 1 1 1 1 1 1 1 1 1 1 1 1 1 1 1 1 1 
1 1 1 1 1 1 1 1 1 1 1 1 1 1 1 1 1 1 1 1 1 1 1 1 
1 1 1 1 1 1 1 1 1 1 1 1 1 1 1 1 1 1 1 1 1 1 1 1 
1 1 1 1 1 1 1 1 1 1 1 1 1 1 1 1 1 1 1 1 1 1 1 1 
1 1 1 1 1 1 1 1 1 1 1 1 1 1 1 1 1 1 1 1 1 1 1 1 
1 1 1 1 1 1 1 1 1 1 1 1 1 1 1 1 1 1 1 1 1 1 1 1 
0.01 0.01 0.01 0.01 0.01 0.01 0.01 0.01 0.01 0.01 0.01 0.01 0.01 0.01 0.01 0.01 0.01 0.01 0.01 0.01 0.01 0.01 0.01 0.01 
0.02 0.02 0.02 0.02 0.02 0.02 0.02 0.02 0.02 0.02 0.02 0.02 0.02 0.02 0.02 0.02 0.02 0.02 0.02 0.02 0.02 0.02 0.02 0.02 
0.03 0.03 0.03 0.03 0.03 0.03 0.03 0.03 0.03 0.03 0.03 0.03 0.03 0.03 0.03 0.03 0.03 0.03 0.03 0.03 0.03 0.03 0.03 0.03 
0.04 0.04 0.04 0.04 0.04 0.04 0.04 0.04 0.04 0.04 0.04 0.04 0.04 0.04 0.04 0.04 0.04 0.04 0.04 0.04 0.04 0.04 0.04 0.04 
0.05 0.05 0.05 0.05 0.05 0.05 0.05 0.05 0.05 0.05 0.05 0.05 0.05 0.05 0.05 0.05 0.05 0.05 0.05 0.05 0.05 0.05 0.05 0.05 
0.06 0.06 0.06 0.06 0.06 0.06 0.06 0.06 0.06 0.06 0.06 0.06 0.06 0.06 0.06 0.06 0.06 0.06 0.06 0.06 0.06 0.06 0.06 0.06 
0.07 0.07 0.07 0.07 0.07 0.07 0.07 0.07 0.07 0.07 0.07 0.07 0.07 0.07 0.07 0.07 0.07 0.07 0.07 0.07 0.07 0.07 0.07 0.07 
0.08 0.08 0.08 0.08 0.08 0.08 0.08 0.08 0.08 0.08 0.08 0.08 0.08 0.08 0.08 0.08 0.08 0.08 0.08 0.08 0.08 0.08 0.08 0.08 
0.09 0.09 0.09 0.09 0.09 0.09 0.09 0.09 0.09 0.09 0.09 0.09 0.09 0.09 0.09 0.09 0.09 0.09 0.09 0.09 0.09 0.09 0.09 0.09 
0.1 0.1 0.1 0.1 0.1 0.1 0.1 0.1 0.1 0.1 0.1 0.1 0.1 0.1 0.1 0.1 0.1 0.1 0.1 0.1 0.1 0.1 0.1 0.1 
0.5 0.5 0.5 0.5 0.5 0.5 0.5 0.5 0.5 0.5 0.5 0.5 0.5 0.5 0.5 0.5 0.5 0.5 0.5 0.5 0.5 0.5 0.5 0.5 
1 1 1 1 1 1 1 1 1 1 1 1 1 1 1 1 1 1 1 1 1 1 1 1 
